%%% static parameters %%%
timespan = 1;
Fact = [4];
Distr1 = [15];
Distr2 = [30];
Clients_N = [300];
Demand_W = [15];
Lt0 = [4];
Lt1 = [4];
SS_ = [0.85];
DS_D = [8];
K = [200];
MA = [500];
%%% dynamic parameters %%%
lost_ratio_sales_ret_th = 0.9084229538308172;
lost_ratio_sales_ret_w = 86;
lost_ratio_sales_dis_th = 0.0436564876932064;
lost_ratio_sales_dis_w = 82;
lost_ratio_sales_fac_th = 0.2580139323173073;
lost_ratio_sales_fac_w = 11;
stock_customer_MA_mean_relative_th = 0.6245453824258036;
stock_customer_MA_mean_relative_w = 58;
stock_distributor_MA_mean_relative_th = 0.1486069012668002;
stock_distributor_MA_mean_relative_w = 7;
stock_retailer_MA_mean_relative_th = 0.8307785774167351;
stock_retailer_MA_mean_relative_w = 35;
stock_factory_MA_mean_relative_th = 0.020096762496692455;
stock_factory_MA_mean_relative_w = 5;
